500
    1     5     5
    2     6     6
    3    46    46
    4    42    42
    5    46    46
    6    36    36
    7    27    27
    8    32    32
    9     8     8
   10    17    17
   11    15    15
   12    41    41
   13    31    31
   14    19    19
   15    45    45
   16    15    15
   17    43    43
   18    12    12
   19    22    22
   20    42    42
   21    45    45
   22    41    41
   23    29    29
   24     9     9
   25    46    46
   26    41    41
   27     6     6
   28    50    50
   29    28    28
   30    41    41
   31    28    28
   32    44    44
   33    45    45
   34    24    24
   35    38    38
   36    34    34
   37    11    11
   38    32    32
   39    40    40
   40    39    39
   41    27    27
   42    39    39
   43    11    11
   44    35    35
   45     6     6
   46    42    42
   47    14    14
   48     8     8
   49     6     6
   50    35    35
   51    36    36
   52     2     2
   53    28    28
   54    40    40
   55    45    45
   56     5     5
   57     5     5
   58    36    36
   59    37    37
   60    20    20
   61    33    33
   62    35    35
   63     7     7
   64    28    28
   65     7     7
   66     4     4
   67    39    39
   68    45    45
   69    50    50
   70     7     7
   71    37    37
   72    11    11
   73    12    12
   74    15    15
   75    30    30
   76     1     1
   77     6     6
   78    10    10
   79     6     6
   80     5     5
   81     1     1
   82    28    28
   83    27    27
   84    29    29
   85    40    40
   86    21    21
   87    23    23
   88    39    39
   89    39    39
   90    20    20
   91     8     8
   92    11    11
   93     9     9
   94    16    16
   95    29    29
   96     6     6
   97    19    19
   98    28    28
   99     2     2
  100     1     1
  101     6     6
  102    23    23
  103    12    12
  104    34    34
  105    43    43
  106    41    41
  107    24    24
  108    43    43
  109    20    20
  110     6     6
  111    25    25
  112    30    30
  113    39    39
  114    18    18
  115    42    42
  116    46    46
  117    44    44
  118    44    44
  119     8     8
  120     7     7
  121    42    42
  122    24    24
  123    28    28
  124    20    20
  125    49    49
  126    23    23
  127    36    36
  128    37    37
  129     1     1
  130    22    22
  131    22    22
  132     5     5
  133    14    14
  134    17    17
  135    50    50
  136    23    23
  137    10    10
  138    14    14
  139    33    33
  140     1     1
  141    45    45
  142    39    39
  143     9     9
  144    13    13
  145    48    48
  146    15    15
  147    11    11
  148    13    13
  149     3     3
  150    12    12
  151    12    12
  152    38    38
  153    26    26
  154    28    28
  155    41    41
  156     9     9
  157    32    32
  158     4     4
  159    32    32
  160    37    37
  161     3     3
  162    29    29
  163    45    45
  164    10    10
  165    30    30
  166    19    19
  167    41    41
  168    42    42
  169    33    33
  170    35    35
  171    35    35
  172    18    18
  173    19    19
  174    40    40
  175    16    16
  176     9     9
  177    30    30
  178    22    22
  179    11    11
  180    36    36
  181    32    32
  182    50    50
  183    48    48
  184     5     5
  185    48    48
  186    17    17
  187    21    21
  188    32    32
  189    20    20
  190    16    16
  191    33    33
  192    10    10
  193     5     5
  194     9     9
  195     2     2
  196    34    34
  197    44    44
  198    40    40
  199    44    44
  200     6     6
  201    47    47
  202    40    40
  203    36    36
  204    41    41
  205    38    38
  206    40    40
  207    16    16
  208    43    43
  209    49    49
  210    13    13
  211     2     2
  212     7     7
  213    37    37
  214    24    24
  215     4     4
  216    46    46
  217    50    50
  218    50    50
  219     1     1
  220    12    12
  221    24    24
  222    47    47
  223     9     9
  224    48    48
  225    45    45
  226    31    31
  227    37    37
  228    15    15
  229    39    39
  230    16    16
  231    12    12
  232    29    29
  233    21    21
  234    17    17
  235    29    29
  236    39    39
  237     9     9
  238    12    12
  239     2     2
  240     9     9
  241    49    49
  242    45    45
  243     6     6
  244     4     4
  245    45    45
  246    48    48
  247     6     6
  248     1     1
  249    23    23
  250    27    27
  251    14    14
  252    16    16
  253    23    23
  254    22    22
  255    43    43
  256    26    26
  257     6     6
  258    35    35
  259    35    35
  260    36    36
  261    45    45
  262    50    50
  263    31    31
  264     1     1
  265     8     8
  266    48    48
  267    18    18
  268    10    10
  269    36    36
  270    41    41
  271    18    18
  272    29    29
  273    49    49
  274     2     2
  275    14    14
  276     3     3
  277    17    17
  278     3     3
  279     4     4
  280    11    11
  281     1     1
  282    34    34
  283    24    24
  284    44    44
  285    37    37
  286     7     7
  287    27    27
  288    41    41
  289     1     1
  290    24    24
  291    46    46
  292    40    40
  293    10    10
  294    31    31
  295    33    33
  296    29    29
  297    46    46
  298    34    34
  299    48    48
  300    10    10
  301    23    23
  302    44    44
  303    14    14
  304    42    42
  305    31    31
  306     1     1
  307    22    22
  308    41    41
  309    31    31
  310     8     8
  311    48    48
  312    32    32
  313    50    50
  314    47    47
  315    47    47
  316    43    43
  317    45    45
  318    23    23
  319    41    41
  320    39    39
  321     9     9
  322    20    20
  323    16    16
  324     3     3
  325    40    40
  326    34    34
  327    35    35
  328     5     5
  329    23    23
  330    50    50
  331    36    36
  332    49    49
  333    20    20
  334    15    15
  335    37    37
  336    38    38
  337    47    47
  338    22    22
  339    43    43
  340    49    49
  341    44    44
  342    24    24
  343    25    25
  344     2     2
  345    24    24
  346    36    36
  347    33    33
  348    14    14
  349     4     4
  350     1     1
  351    44    44
  352    44    44
  353    24    24
  354     5     5
  355     1     1
  356    20    20
  357     4     4
  358    26    26
  359    41    41
  360     8     8
  361    49    49
  362    19    19
  363    48    48
  364     9     9
  365    46    46
  366    31    31
  367    30    30
  368    19    19
  369    44    44
  370    13    13
  371    17    17
  372    25    25
  373     8     8
  374    31    31
  375    35    35
  376    46    46
  377    25    25
  378    47    47
  379    25    25
  380    21    21
  381    22    22
  382    24    24
  383    36    36
  384    27    27
  385    34    34
  386    21    21
  387    38    38
  388    34    34
  389    45    45
  390     8     8
  391    47    47
  392     3     3
  393    33    33
  394    32    32
  395    33    33
  396    16    16
  397    50    50
  398    28    28
  399     7     7
  400    26    26
  401    46    46
  402    42    42
  403    18    18
  404    37    37
  405     4     4
  406    40    40
  407    48    48
  408    46    46
  409    10    10
  410    16    16
  411    16    16
  412    46    46
  413    30    30
  414    39    39
  415     5     5
  416     7     7
  417    25    25
  418    18    18
  419    21    21
  420    21    21
  421     2     2
  422    29    29
  423    37    37
  424    25    25
  425    28    28
  426    27    27
  427     4     4
  428    37    37
  429    35    35
  430    35    35
  431    17    17
  432    46    46
  433    14    14
  434    27    27
  435    17    17
  436    17    17
  437    29    29
  438    35    35
  439    48    48
  440    21    21
  441    33    33
  442    45    45
  443    50    50
  444    36    36
  445     7     7
  446    27    27
  447    31    31
  448    16    16
  449    17    17
  450    28    28
  451    17    17
  452    21    21
  453     1     1
  454    50    50
  455    17    17
  456    43    43
  457    21    21
  458    18    18
  459    24    24
  460    42    42
  461    35    35
  462    40    40
  463    38    38
  464     9     9
  465    40    40
  466    44    44
  467    46    46
  468     7     7
  469    41    41
  470    49    49
  471    11    11
  472    18    18
  473    19    19
  474    18    18
  475    41    41
  476     4     4
  477     2     2
  478     1     1
  479    22    22
  480    50    50
  481     3     3
  482    47    47
  483     7     7
  484    47    47
  485     3     3
  486    16    16
  487    19    19
  488    30    30
  489    12    12
  490    23    23
  491     6     6
  492    14    14
  493     5     5
  494    24    24
  495    27    27
  496     9     9
  497    18    18
  498    39    39
  499    20    20
  500    19    19
10821
